HUN,8,6,501
5,21,3,28,1,27,2,30,0,30,4,26
1,25,3,23,2,24,5,28,0,26,4,26
3,22,5,26,1,25,0,30,2,26,4,23
0,22,3,22,1,22,5,26,4,29,2,26
1,28,4,30,5,26,2,22,3,26,0,30
1,27,5,26,2,22,4,22,3,21,0,24
3,21,5,29,0,28,1,28,2,25,4,21
3,25,4,25,0,30,5,29,1,29,2,26
